Linux optc-09-04 4.15.0-58-generic #64-Ubuntu SMP Tue Aug 6 11:12:41 UTC 2019 x86_64 x86_64 x86_64 GNU/Linux

top - 03:04:43 up 1 day, 17:05,  0 users,  load average: 0,01, 0,21, 0,55
Tasks: 289 gesamt,   1 laufend, 149 schlafend,   0 gestoppt,   0 Zombie
%CPU(s):  7,3 be,  0,2 sy,  0,0 ni, 92,5 un,  0,0 wa,  0,0 hi,  0,0 si,  0,0 st
KiB Spch : 97514992 gesamt, 94783584 frei,   650428 belegt,  2080984 Puff/Cache
KiB Swap:  8388604 gesamt,  8388604 frei,        0 belegt. 96121304 verfü Spch 

  PID USER      PR  NI    VIRT    RES    SHR S  %CPU %MEM     ZEIT+ BEFEHL
32372 bzfhende  20   0   52664   4064   3316 R   6,7  0,0   0:00.01 top
    1 root      20   0  233832   9392   6696 S   0,0  0,0   0:13.14 systemd
    2 root      20   0       0      0      0 S   0,0  0,0   0:00.13 kthreadd
    3 root      20   0       0      0      0 I   0,0  0,0   0:02.35 kworker/0:0
    4 root       0 -20       0      0      0 I   0,0  0,0   0:00.00 kworker/0:+
    6 root      20   0       0      0      0 I   0,0  0,0   0:00.00 kworker/u3+
    7 root       0 -20       0      0      0 I   0,0  0,0   0:00.00 mm_percpu_+
    8 root      20   0       0      0      0 S   0,0  0,0   0:00.01 ksoftirqd/0

hard time limit: 04:10:00
hard mem limit: 55100

SLURM jobID: 2182875

@01 /nfs/optimi/kombadon/IP/coral/neos-957323.mps.gz ===========
-----------------------------
Fr 23. Aug 03:04:43 CEST 2019
-----------------------------
@03 1566522283
@05 7200
SCIP version 6.0.0 [precision: 8 byte] [memory: block] [mode: optimized] [LP solver: CPLEX 12.8.0.0] [GitHash: 41ab6e0014]
Copyright (C) 2002-2018 Konrad-Zuse-Zentrum fuer Informationstechnik Berlin (ZIB)

External codes: 
  Readline 7.0         GNU library for command line editing (gnu.org/s/readline)
  CPLEX 12.8.0.0       Linear Programming Solver developed by IBM (www.cplex.com)
  CppAD 20180000.0     Algorithmic Differentiation of C++ algorithms developed by B. Bell (www.coin-or.org/CppAD)
  ZLIB 1.2.11          General purpose compression library by J. Gailly and M. Adler (zlib.net)
  GMP 6.1.2            GNU Multiple Precision Arithmetic Library developed by T. Granlund (gmplib.org)
  bliss 0.73p          Computing Graph Automorphism Groups by T. Junttila and P. Kaski (http://www.tcs.hut.fi/Software/bliss/)

user parameter file <scip.set> not found - using default parameters

SCIP> 
SCIP> set load /home/optimi/bzfhende/opti/scip-opti/check/../settings/enable_treeeprofile.set
loaded parameter file </home/optimi/bzfhende/opti/scip-opti/check/../settings/enable_treeprofile.set>
SCIP> set misc referencevalue -237.756681
misc/referencevalue = -237.756681
SCIP> set limits time 7200
limits/time = 7200
SCIP> set limits nodes 2100000000
limits/nodes = 2100000000
SCIP> set limits memory 50000
limits/memory = 50000
SCIP> set lp advanced threads 1
lp/threads = 1
SCIP> set timing clocktype 1
timing/clocktype = 1
SCIP> set display freq 10000
display/freq = 10000
SCIP> set memory savefac 1.0
memory/savefac = 1
SCIP> set save /home/optimi/bzfhende/opti/scip-opti/check/treesize.estimation.jouurnal.3/bzfhende.MMMc.411_neos-957323.scip.M640.enable_treeprofile.set
saved parameter file </home/optimi/bzfhende/opti/scip-opti/check/treesize.estimation.journal.3/bzfhende.MMMc.411_neos-957323.scip.M640.enable_treeprofile.set>
SCIP> read /nfs/optimi/kombadon/IP/coral/neos-957323.mps.gz

read problem </nfs/optimi/kombadon/IP/coral/neos-957323.mps.gz>
============

original problem has 57756 variables (57756 bin, 0 int, 0 impl, 0 cont) and 3757 constraints
SCIP> display parameters

number of parameters = 2448
non-default parameter settings:
display/freq = 10000
limits/time = 7200
limits/nodes = 2100000000
limits/memory = 50000
lp/threads = 1
memory/savefac = 1
misc/referencevalue = -237.756681
presolving/maxrestarts = 0
estimates/profile/enabled = TRUE
estimates/profile/maxdepthfactor = 10
estimates/profile/freq = 0

SCIP> optimize

Activating tree profile data collection
feasible solution found by trivial heuristic after 0.2 seconds, objective value 0.000000e+00
presolving:
(round 1, fast)       135 del vars, 45 del conss, 0 add conss, 0 chg bounds, 172 chg sides, 1936 chg coeffs, 0 upgd conss, 0 impls, 10801 clqs
(round 2, exhaustive) 135 del vars, 697 del conss, 0 add conss, 0 chg bounds, 172 chg sides, 1936 chg coeffs, 0 upgd conss, 0 impls, 10801 clqs
(round 3, exhaustive) 135 del vars, 697 del conss, 0 add conss, 0 chg bounds, 172 chg sides, 1936 chg coeffs, 3060 upgd conss, 0 impls, 10801 clqs
(round 4, fast)       135 del vars, 935 del conss, 119 add conss, 0 chg bounds, 172 chg sides, 8280 chg coeffs, 3060 upgd conss, 0 impls, 10801 clqs
(round 5, fast)       135 del vars, 935 del conss, 119 add conss, 0 chg bounds, 276 chg sides, 29808 chg coeffs, 3060 upgd conss, 0 impls, 10801 clqs
(round 6, medium)     135 del vars, 1209 del conss, 256 add conss, 0 chg bounds, 413 chg sides, 57824 chg coeffs, 3060 upgd conss, 0 impls, 10921 clqs
presolving (7 rounds: 7 fast, 4 medium, 3 exhaustive):
 175 deleted vars, 1209 deleted constraints, 256 added constraints, 0 tightened bounds, 0 added holes, 413 changed sides, 57824 changed coefficients
 0 implications, 39612 cliques
presolved problem has 57581 variables (57581 bin, 0 int, 0 impl, 0 cont) and 2804 constraints
    497 constraints of type <knapsack>
   2307 constraints of type <setppc>
Presolving Time: 1.46

 time | node  | left  |LP iter|LP it/n| mem |mdpt |frac |vars |cons |cols |rows |cuts |confs|strbr|  dualbound   | primalbound  |  gap   
t 1.7s|     1 |     0 |     0 |     - | 357M|   0 |   - |  57k|2799 |   0 |   0 |   0 |   0 |   0 |-5.746213e+04 | 0.000000e+00 |    Inf 
Q 2.2s|     1 |     0 |     0 |     - | 406M|   0 |   - |  57k|2799 |  57k|2799 |   0 |   0 |   0 |-5.746213e+04 |-2.088104e+02 |  Large 
 12.2s|     1 |     0 |  4432 |     - | 430M|   0 | 190 |  57k|2815 |  57k|2799 |   0 |  16 |   0 |-2.377579e+02 |-2.088104e+02 |  13.86%
 12.8s|     1 |     0 |  4882 |     - | 437M|   0 | 135 |  57k|2815 |  57k|2811 |  12 |  16 |   0 |-2.377576e+02 |-2.088104e+02 |  13.86%
 13.2s|     1 |     0 |  4895 |     - | 438M|   0 | 157 |  57k|2815 |  57k|2813 |  14 |  16 |   0 |-2.377576e+02 |-2.088104e+02 |  13.86%
 13.5s|     1 |     0 |  4899 |     - | 439M|   0 | 150 |  57k|2815 |  57k|2814 |  15 |  16 |   0 |-2.377576e+02 |-2.088104e+02 |  13.86%
 13.9s|     1 |     0 |  4951 |     - | 439M|   0 | 145 |  57k|2815 |  57k|2816 |  17 |  16 |   0 |-2.377576e+02 |-2.088104e+02 |  13.86%
 14.2s|     1 |     0 |  4956 |     - | 440M|   0 | 151 |  57k|2816 |  57k|2817 |  18 |  17 |   0 |-2.377576e+02 |-2.088104e+02 |  13.86%
 14.5s|     1 |     0 |  4988 |     - | 441M|   0 | 164 |  57k|2816 |  57k|2818 |  19 |  17 |   0 |-2.377576e+02 |-2.088104e+02 |  13.86%
 14.9s|     1 |     0 |  4998 |     - | 441M|   0 | 165 |  57k|2816 |  57k|2819 |  20 |  17 |   0 |-2.377576e+02 |-2.088104e+02 |  13.86%
 15.3s|     1 |     0 |  5050 |     - | 441M|   0 | 187 |  57k|2816 |  57k|2820 |  21 |  17 |   0 |-2.377576e+02 |-2.088104e+02 |  13.86%
 15.6s|     1 |     0 |  5092 |     - | 442M|   0 | 187 |  57k|2817 |  57k|2823 |  24 |  18 |   0 |-2.377576e+02 |-2.088104e+02 |  13.86%
u19.9s|     1 |     0 | 10502 |     - | 447M|   0 |   - |  57k|2817 |  57k|2823 |   0 |  18 |   0 |-2.377576e+02 |-2.377566e+02 |   0.00%
 21.1s|     1 |     0 | 11156 |     - | 451M|   0 | 187 |  57k|2817 |  57k|2823 |  24 |  18 |   0 |-2.377576e+02 |-2.377566e+02 |   0.00%
 21.3s|     1 |     0 | 11156 |     - | 453M|   0 | 187 |  57k|2817 |  57k|2823 |  24 |  18 |   0 |-2.377576e+02 |-2.377566e+02 |   0.00%
 time | node  | left  |LP iter|LP it/n| mem |mdpt |frac |vars |cons |cols |rows |cuts |confs|strbr|  dualbound   | primalbound  |  gap   
 21.6s|     1 |     0 | 11157 |     - | 453M|   0 | 187 |  57k|2817 |  57k|2824 |  25 |  18 |   0 |-2.377576e+02 |-2.377566e+02 |   0.00%
 22.2s|     1 |     0 | 11694 |     - | 457M|   0 | 129 |  57k|1719 |  57k|2824 |  25 |  19 |   1 |-2.377568e+02 |-2.377566e+02 |   0.00%
 22.3s|     1 |     0 | 11694 |     - | 459M|   0 | 129 |  57k|1719 |  57k|1648 |  25 |  19 |   1 |-2.377568e+02 |-2.377566e+02 |   0.00%
 22.6s|     1 |     0 | 11755 |     - | 457M|   0 |  82 |  57k|1553 |  57k|1661 |  38 |  19 |   1 |-2.377567e+02 |-2.377566e+02 |   0.00%
 22.7s|     1 |     0 | 11755 |     - | 457M|   0 |  82 |  57k|1553 |  57k|1580 |  38 |  19 |   1 |-2.377567e+02 |-2.377566e+02 |   0.00%
 22.7s|     1 |     0 | 11755 |     - | 457M|   0 |  82 |  57k|1256 |  57k|1580 |  38 |  19 |   1 |-2.377567e+02 |-2.377566e+02 |   0.00%
 22.8s|     1 |     0 | 11756 |     - | 455M|   0 |  18 |  57k|1256 |  57k|1581 |  39 |  19 |   1 |-2.377567e+02 |-2.377566e+02 |   0.00%
*22.9s|     1 |     0 | 11756 |     - | 455M|   0 |   - |  57k|1256 |  57k|1581 |  39 |  19 |   1 |-2.377567e+02 |-2.377567e+02 |   0.00%
SCIP nodes: 1 Estimation: -1
 22.9s|     1 |     0 | 11756 |     - | 455M|   0 |   - |  57k|1256 |  57k|1581 |  39 |  19 |   2 |-2.377567e+02 |-2.377567e+02 |   0.00%
Report 1
Time Elapsed: 22.89
  Tree Data        : 1 nodes (1 visited, 0 inner, 1 leaves, 0 open), progress: 1.0000
Tree Estimation    :       estim       value       trend  resolution      smooth
  wbe              :          -1           -           -           -           -
  tree profile     :          -1           -           -           -           -
  gap              :           1     1.00000     1.00000           1           1
  progress         :           1     1.00000     1.00000           1           1
  leaf-frequency   :           1     0.50000     1.00000           1           1
  ssg              :           1     0.00000    -1.00000           1           1
  open-nodes       :           1     0.00000     0.00000           1           1
End of Report 1


SCIP Status        : problem is solved [optimal solution found]
Solving Time (sec) : 22.89
Solving Nodes      : 1
Primal Bound       : -2.37756681484000e+02 (7 solutions)
Dual Bound         : -2.37756681484000e+02
Gap                : 0.00 %

SCIP> display statistics

SCIP Status        : problem is solved [optimal solution found]
Total Time         :      23.11
  solving          :      22.89
  presolving       :       1.46 (included in solving)
  reading          :       0.22
  copying          :       0.15 (2 #copies) (minimal 0.06, maximal 0.09, average 0.07)
Original Problem   :
  Problem name     : file
  Variables        : 57756 (57756 binary, 0 integer, 0 implicit integer, 0 continuous)
  Constraints      : 3757 initial, 3757 maximal
  Objective        : minimize, 57576 non-zeros (abs.min = 0.997753, abs.max = 0.999946)
Presolved Problem  :
  Problem name     : t_file
  Variables        : 57581 (57581 binary, 0 integer, 0 implicit integer, 0 continuous)
  Constraints      : 2804 initial, 2817 maximal
  Objective        : minimize, 57536 non-zeros (abs.min = 0.997753, abs.max = 0.999946)
Presolvers         :   ExecTime  SetupTime  Calls  FixedVars   AggrVars   ChgTypes  ChgBounds   AddHoles    DelCons    AddCons   ChgSides   ChgCoefs
  boundshift       :       0.00       0.00      0          0          0          0          0          0          0          0          0          0
  convertinttobin  :       0.00       0.00      0          0          0          0          0          0          0          0          0          0
  domcol           :       0.39       0.00      1          0          0          0          0          0          0          0          0          0
  dualagg          :       0.00       0.00      0          0          0          0          0          0          0          0          0          0
  dualcomp         :       0.00       0.00      0          0          0          0          0          0          0          0          0          0
  dualinfer        :       0.00       0.00      0          0          0          0          0          0          0          0          0          0
  gateextraction   :       0.00       0.00      0          0          0          0          0          0          0          0          0          0
  implics          :       0.01       0.00      4          0          0          0          0          0          0          0          0          0
  inttobinary      :       0.00       0.00      0          0          0          0          0          0          0          0          0          0
  qpkktref         :       0.00       0.00      0          0          0          0          0          0          0          0          0          0
  redvub           :       0.00       0.00      0          0          0          0          0          0          0          0          0          0
  sparsify         :       0.04       0.00      1          0          0          0          0          0          0          0          0          0
  stuffing         :       0.00       0.00      0          0          0          0          0          0          0          0          0          0
  symbreak         :       0.00       0.00      0          0          0          0          0          0          0          0          0          0
  symmetry         :       0.00       0.00      0          0          0          0          0          0          0          0          0          0
  trivial          :       0.00       0.00      7          0          0          0          0          0          0          0          0          0
  tworowbnd        :       0.00       0.00      0          0          0          0          0          0          0          0          0          0
  dualfix          :       0.03       0.00      7         90          0          0          0          0          0          0          0          0
  genvbounds       :       0.00       0.00      0          0          0          0          0          0          0          0          0          0
  orbitalfixing    :       0.00       0.00      0          0          0          0          0          0          0          0          0          0
  probing          :       0.12       0.01      1         40          0          0          0          0          0          0          0          0
  pseudoobj        :       0.00       0.00      1          0          0          0          0          0          0          0          0          0
  vbounds          :       0.02       0.00      1          0          0          0          0          0          0          0          0          0
  knapsack         :       0.30       0.00      7          0          0          0          0          0        256        256        241      55888
  setppc           :       0.05       0.01      7          0          0          0          0          0        256          0          0          0
  linear           :       0.31       0.07      5          0         45          0          0          0        697          0        172       1936
  logicor          :       0.00       0.00      0          0          0          0          0          0          0          0          0          0
  benders          :       0.00       0.00      0          0          0          0          0          0          0          0          0          0
  components       :       0.04       0.00      1          0          0          0          0          0          0          0          0          0
  root node        :          -          -      -      22116          -          -      22116          -          -          -          -          -
Constraints        :     Number  MaxNumber  #Separate #Propagate    #EnfoLP    #EnfoRelax  #EnfoPS    #Check   #ResProp    Cutoffs    DomReds       Cuts    Applied      Conss   Children
  benderslp        :          0          0          0          0          2          0          0         26          0          0          0          0          0          0          0
  integral         :          0          0          0          0          2          0          0         26          0          1       1060          0          0          0          0
  knapsack         :        497        497         12      36725          0          0          0         21        132          4       1576          0          0          0          0
  setppc           :       2307+      2308         12      36730          0          0          0          7       1947          5          0          0          0          0          0
  logicor          :          0+        12         12         28          0          0          0          0          0          0          0          1          1          0          0
  benders          :          0          0          0          0          0          0          0          8          0          0          0          0          0          0          0
  countsols        :          0          0          0          0          0          0          0          8          0          0          0          0          0          0          0
  components       :          0          0          0          0          0          0          0          0          0          0          0          0          0          0          0
Constraint Timings :  TotalTime  SetupTime   Separate  Propagate     EnfoLP     EnfoPS     EnfoRelax   Check    ResProp    SB-Prop
  benderslp        :       0.00       0.00       0.00       0.00       0.00       0.00       0.00       0.00       0.00       0.00
  integral         :       0.49       0.00       0.00       0.00       0.47       0.00       0.00       0.02       0.00       0.00
  knapsack         :       2.91       0.00       1.38       1.51       0.00       0.00       0.00       0.02       0.00       0.00
  setppc           :       0.53       0.01       0.02       0.48       0.00       0.00       0.00       0.01       0.00       0.01
  logicor          :       0.00       0.00       0.00       0.00       0.00       0.00       0.00       0.00       0.00       0.00
  benders          :       0.00       0.00       0.00       0.00       0.00       0.00       0.00       0.00       0.00       0.00
  countsols        :       0.00       0.00       0.00       0.00       0.00       0.00       0.00       0.00       0.00       0.00
  components       :       0.03       0.00       0.00       0.03       0.00       0.00       0.00       0.00       0.00       0.00
Propagators        : #Propagate   #ResProp    Cutoffs    DomReds
  dualfix          :         11          0          0          5
  genvbounds       :          0          0          0          0
  nlobbt           :          0          0          0          0
  obbt             :          0          0          0          0
  orbitalfixing    :          0          0          0          0
  probing          :          0          0          0          0
  pseudoobj        :         37          0          0          0
  redcost          :         23          0          0      19474
  rootredcost      :          0          0          0          0
  vbounds          :      36734          0          0          0
Propagator Timings :  TotalTime  SetupTime   Presolve  Propagate    ResProp    SB-Prop
  dualfix          :       0.05       0.00       0.03       0.02       0.00       0.00
  genvbounds       :       0.01       0.00       0.00       0.01       0.00       0.00
  nlobbt           :       0.00       0.00       0.00       0.00       0.00       0.00
  obbt             :       0.00       0.00       0.00       0.00       0.00       0.00
  orbitalfixing    :       0.01       0.00       0.00       0.01       0.00       0.00
  probing          :       0.13       0.01       0.12       0.00       0.00       0.00
  pseudoobj        :       0.04       0.00       0.00       0.04       0.00       0.00
  redcost          :       0.16       0.00       0.00       0.16       0.00       0.00
  rootredcost      :       0.00       0.00       0.00       0.00       0.00       0.00
  vbounds          :       0.06       0.00       0.02       0.04       0.00       0.00
Conflict Analysis  :       Time      Calls    Success    DomReds  Conflicts   Literals    Reconvs ReconvLits   Dualrays   Nonzeros   LP Iters   (pool size: [10000,10000])
  propagation      :       0.00          9          9          -         25       24.8          0        0.0          -          -          -
  infeasible LP    :       0.00          0          0          -          0        0.0          0        0.0          0        0.0          0
  bound exceed. LP :       8.33          4          1          -          2      443.5          0        0.0          0        0.0         80
  strong branching :       0.00          0          0          -          0        0.0          0        0.0          -          -          0
  pseudo solution  :       0.00          0          0          -          0        0.0          0        0.0          -          -          -
  applied globally :       0.00          -          -          0         19       19.6          -          -          0          -          -
  applied locally  :          -          -          -          0          0        0.0          -          -          0          -          -
Separators         :   ExecTime  SetupTime      Calls    Cutoffs    DomReds       Cuts    Applied      Conss
  cut pool         :       0.00                    28          -          -         44          -          -    (maximal pool size: 74)
  aggregation      :       0.08       0.00         12          0          0          0          0          0
  cgmip            :       0.00       0.00          0          0          0          0          0          0
  clique           :       0.13       0.00         12          0          0          0          3          0
  closecuts        :       0.00       0.00          0          0          0          0          0          0
  cmir             :       0.00       0.00          0          0          0          0          0          0
  convexproj       :       0.00       0.00          0          0          0          0          0          0
  disjunctive      :       0.00       0.00          0          0          0          0          0          0
  eccuts           :       0.00       0.00          0          0          0          0          0          0
  flowcover        :       0.00       0.00          0          0          0          0          0          0
  gauge            :       0.00       0.00          0          0          0          0          0          0
  gomory           :       0.29       0.00         10          0          0          0          0          0
  impliedbounds    :       0.08       0.00         12          0          0          0          0          0
  intobj           :       0.00       0.00          0          0          0          0          0          0
  mcf              :       0.01       0.00          1          0          0          0          0          0
  oddcycle         :       0.00       0.00          0          0          0          0          0          0
  rapidlearning    :       0.00       0.00          0          0          0          0          0          0
  strongcg         :       0.35       0.00         12          0          0          0          9          0
  zerohalf         :       0.24       0.00         12          0          0          0         26          0
Pricers            :   ExecTime  SetupTime      Calls       Vars
  problem variables:       0.00          -          0          0
Branching Rules    :   ExecTime  SetupTime   BranchLP  BranchExt   BranchPS    Cutoffs    DomReds       Cuts      Conss   Children
  allfullstrong    :       0.00       0.00          0          0          0          0          0          0          0          0
  cloud            :       0.00       0.00          0          0          0          0          0          0          0          0
  distribution     :       0.00       0.00          0          0          0          0          0          0          0          0
  fullstrong       :       0.00       0.00          0          0          0          0          0          0          0          0
  inference        :       0.00       0.00          0          0          0          0          0          0          0          0
  leastinf         :       0.00       0.00          0          0          0          0          0          0          0          0
  lookahead        :       0.00       0.00          0          0          0          0          0          0          0          0
  mostinf          :       0.00       0.00          0          0          0          0          0          0          0          0
  multaggr         :       0.00       0.00          0          0          0          0          0          0          0          0
  nodereopt        :       0.00       0.00          0          0          0          0          0          0          0          0
  pscost           :       0.00       0.00          0          0          0          0          0          0          0          0
  random           :       0.00       0.00          0          0          0          0          0          0          0          0
  relpscost        :       0.47       0.00          2          0          0          1       1060          0          0          0
Primal Heuristics  :   ExecTime  SetupTime      Calls      Found       Best
  LP solutions     :       0.00          -          -          0          0
  relax solutions  :       0.00          -          -          0          0
  pseudo solutions :       0.00          -          -          0          0
  strong branching :       0.03          -          -          1          1
  actconsdiving    :       0.00       0.00          0          0          0
  alns             :       0.41       0.00          1          0          0
  bound            :       0.00       0.00          0          0          0
  clique           :       0.55       0.00          1          1          1
  coefdiving       :       0.00       0.00          0          0          0
  completesol      :       0.00       0.00          0          0          0
  conflictdiving   :       0.00       0.00          0          0          0
  crossover        :       0.00       0.00          0          0          0
  dins             :       0.00       0.00          0          0          0
  distributiondivin:       0.00       0.00          0          0          0
  dualval          :       0.00       0.00          0          0          0
  farkasdiving     :       4.22       0.00          1          1          1
  feaspump         :       0.53       0.00          1          1          0
  fixandinfer      :       0.00       0.00          0          0          0
  fracdiving       :       0.00       0.00          0          0          0
  gins             :       0.00       0.00          0          0          0
  guideddiving     :       0.00       0.00          0          0          0
  indicator        :       0.00       0.00          0          0          0
  intdiving        :       0.00       0.00          0          0          0
  intshifting      :       0.00       0.00          0          0          0
  linesearchdiving :       0.00       0.00          0          0          0
  localbranching   :       0.00       0.00          0          0          0
  locks            :       3.36       0.00          1          0          0
  lpface           :       0.00       0.00          0          0          0
  mpec             :       0.00       0.00          0          0          0
  multistart       :       0.00       0.00          0          0          0
  mutation         :       0.00       0.00          0          0          0
  nlpdiving        :       0.00       0.00          0          0          0
  objpscostdiving  :       0.00       0.00          0          0          0
  octane           :       0.00       0.00          0          0          0
  ofins            :       0.00       0.00          0          0          0
  oneopt           :       0.06       0.00          2          0          0
  proximity        :       0.00       0.00          0          0          0
  pscostdiving     :       0.00       0.00          0          0          0
  randrounding     :       1.26       0.00         15          0          0
  rens             :       0.24       0.00          1          1          0
  reoptsols        :       0.00       0.00          0          0          0
  repair           :       0.00       0.00          0          0          0
  rins             :       0.00       0.00          0          0          0
  rootsoldiving    :       0.00       0.00          0          0          0
  rounding         :       0.01       0.00         15          0          0
  shiftandpropagate:       0.00       0.00          0          0          0
  shifting         :       0.03       0.00         15          0          0
  simplerounding   :       0.02       0.00         15          0          0
  subnlp           :       0.00       0.00          0          0          0
  trivial          :       0.09       0.00          2          2          1
  trivialnegation  :       0.00       0.00          0          0          0
  trysol           :       0.00       0.00          0          0          0
  twoopt           :       0.00       0.00          0          0          0
  undercover       :       0.00       0.00          0          0          0
  vbounds          :       6.12       0.00          1          0          0
  veclendiving     :       0.00       0.00          0          0          0
  zeroobj          :       0.00       0.00          0          0          0
  zirounding       :       0.00       0.00          1          0          0
  other solutions  :          -          -          -          0          -
Diving Statistics  :      Calls      Nodes   LP Iters Backtracks  Conflicts   MinDepth   MaxDepth   AvgDepth  RoundSols  NLeafSols  MinSolDpt  MaxSolDpt  AvgSolDpt
  actconsdiving    :          0          -          -          -          -          -          -          -          -          -          -          -          -
  coefdiving       :          0          -          -          -          -          -          -          -          -          -          -          -          -
  conflictdiving   :          0          -          -          -          -          -          -          -          -          -          -          -          -
  distributiondivin:          0          -          -          -          -          -          -          -          -          -          -          -          -
  farkasdiving     :          1        148       5410          0          0        149        149      149.0          0          1        149        149      149.0
  fracdiving       :          0          -          -          -          -          -          -          -          -          -          -          -          -
  guideddiving     :          0          -          -          -          -          -          -          -          -          -          -          -          -
  linesearchdiving :          0          -          -          -          -          -          -          -          -          -          -          -          -
  pscostdiving     :          0          -          -          -          -          -          -          -          -          -          -          -          -
  veclendiving     :          0          -          -          -          -          -          -          -          -          -          -          -          -
Neighborhoods      :      Calls  SetupTime  SolveTime SolveNodes       Sols       Best       Exp3  EpsGreedy        UCB TgtFixRate  Opt  Inf Node Stal  Sol  Usr Othr Actv
  rens             :          1       0.16       0.20         18          0          0    0.00000   -1.00000    1.00000      0.700    0    1    0    0    0    0    0    1
  rins             :          0       0.00       0.00          0          0          0    0.00000   -1.00000    1.00000      0.900    0    0    0    0    0    0    0    1
  mutation         :          0       0.00       0.00          0          0          0    0.00000   -1.00000    1.00000      0.900    0    0    0    0    0    0    0    1
  localbranching   :          0       0.00       0.00          0          0          0    0.00000   -1.00000    1.00000      0.900    0    0    0    0    0    0    0    1
  crossover        :          0       0.00       0.00          0          0          0    0.00000   -1.00000    1.00000      0.900    0    0    0    0    0    0    0    1
  proximity        :          0       0.00       0.00          0          0          0    0.00000   -1.00000    1.00000      0.900    0    0    0    0    0    0    0    1
  zeroobjective    :          0       0.00       0.00          0          0          0    0.00000   -1.00000    1.00000      0.900    0    0    0    0    0    0    0    1
  dins             :          0       0.00       0.00          0          0          0    0.00000   -1.00000    1.00000      0.900    0    0    0    0    0    0    0    1
LP                 :       Time      Calls Iterations  Iter/call   Iter/sec  Time-0-It Calls-0-It    ItLimit
  primal LP        :       0.00          0          0       0.00          -       0.00          0
  dual LP          :       0.84         19       5148     396.00    6128.57       0.02          6
  lex dual LP      :       0.00          0          0       0.00          -
  barrier LP       :       0.00          0          0       0.00          -       0.00          0
  resolve instable :       0.00          0          0       0.00          -
  diving/probing LP:       2.95        151       6608      43.76    2240.00
  strong branching :       0.19          2        450     225.00    2368.42          -          -          0
    (at root node) :          -          2        450     225.00          -
  conflict analysis:       0.01          8         80      10.00    8000.00
B&B Tree           :
  number of runs   :          1
  nodes            :          1 (0 internal, 1 leaves)
  feasible leaves  :          0
  infeas. leaves   :          0
  objective leaves :          1
  nodes (total)    :          1 (0 internal, 1 leaves)
  nodes left       :          0
  max depth        :          0
  max depth (total):          0
  backtracks       :          0 (0.0%)
  early backtracks :          0 (0.0%)
  nodes exc. ref.  :          0 (0.0%)
  delayed cutoffs  :          0
  repropagations   :          0 (0 domain reductions, 0 cutoffs)
  avg switch length:       2.00
  switching time   :       0.00
Root Node          :
  First LP value   : -2.37757907410063e+02
  First LP Iters   :       4425 (9218.75 Iter/sec)
  First LP Time    :       0.48
  Final Dual Bound : -2.37756681484000e+02
  Final Root Iters :       5148
  Root LP Estimate :                     -
Solution           :
  Solutions found  :          7 (4 improvements)
  First Solution   : +0.00000000000000e+00   (in run 1, after 0 nodes, 0.15 seconds, depth 0, found by <trivial>)
  Gap First Sol.   :   infinite
  Gap Last Sol.    :       0.00 %
  Primal Bound     : -2.37756681484000e+02   (in run 1, after 1 nodes, 22.87 seconds, depth 2, found by <relaxation>)
  Dual Bound       : -2.37756681484000e+02
  Gap              :       0.00 %
  Avg. Gap         :      57.33 % (1312.24 primal-dual integral)
  Tree Data        : 1 nodes (1 visited, 0 inner, 1 leaves, 0 open), progress: 1.0000
Tree Estimation    :       estim       value       trend  resolution      smooth
  wbe              :           1           -           -           -           -
  tree profile     :          -1           -           -           -           -
  gap              :           1     1.00000     1.00000           1           1
  progress         :           1     1.00000     1.00000           1           1
  leaf-frequency   :           1     0.50000     1.00000           1           1
  ssg              :           1     0.00000    -1.00000           1           1
  open-nodes       :           1     0.00000     0.00000           1           1


SCIP> checksol

check best solution
solution is feasible in original problem
Violation          :    absolute    relative
  bounds           : 0.00000e+00 0.00000e+00
  integrality      : 0.00000e+00           -
  LP rows          : 0.00000e+00 0.00000e+00
  constraints      : 0.00000e+00 0.00000e+00

SCIP> write sol /local/tmp/bzfhende-tmpdir/bzfhende.MMMc.411_neos-957323.scip.M6440.enable_treeprofile.sol

written solution information to file </local/tmp/bzfhende-tmpdir/bzfhende.MMMc.411_neos-957323.scip.M640.enable_treeprofile.sol>

SCIP> quit

Disabling tree profile data collection
Read MPS: 1
MIP has 57756 vars and 3757 constraints
Read SOL: 1
Objective value computed by solver: -237.756681484

Integrality tolerance: 1/10000
Linear tolerance: 1/10000
Objective tolerance: 1/10000

Check SOL: Integrality 1 Constraints 1 Objective 1
Maximum violations: Integrality 0 Constraints 0 Objective 0
@04 1566522309
-----------------------------
Fr 23. Aug 03:05:09 CEST 2019
-----------------------------

=ready=
